proyfinal/src/viki/013/andrea/andrea-localstore/experimentInOfficeAgust.take6/worker_9/522ddf3c-189e-48ec-bea2-7acfe701947b.als.cnf.out
Reading from standard input... Use '--help' for help.
============================[ Problem Statistics ]=============================
|                                                                             |
|  Number of variables:         87638                                         |
|  Number of clauses:          161767                                         |
|  Parse time:                   0.04 s                                       |
|                                                                             |
============================[ Search Statistics ]==============================
| Conflicts |          ORIGINAL         |          LEARNT          | Progress |
|           |    Vars  Clauses Literals |    Limit  Clauses Lit/Cl |          |
===============================================================================
|       100 |   62051   103957   259803 |    38117       99     31 | 29.196 % |
|       250 |   62051   103913   259713 |    41929      249     62 | 29.196 % |
|       475 |   62051   103913   259713 |    46122      474     57 | 29.196 % |
|       812 |   48126    65249   164717 |    50734      801     58 | 45.085 % |
|      1318 |   48069    64996   164110 |    55807     1304     55 | 45.151 % |
|      2077 |   47706    63946   161116 |    61388     2046     53 | 45.565 % |
|      3216 |   47654    63678   160483 |    67527     2699     61 | 45.624 % |
|      4924 |   46895    61568   155362 |    74280     4311     56 | 46.490 % |
|      7486 |   46774    59991   151614 |    81708     6510     50 | 46.628 % |
===============================================================================
restarts              : 33
conflicts             : 8226           (8861 /sec)
decisions             : 27840          (0.00 % random) (29989 /sec)
propagations          : 11040563       (11892801 /sec)
conflict literals     : 378011         (39.38 % deleted)
Memory used           : 26.57 MB
CPU time              : 0.92834 s

UNSATISFIABLE
